Set parameter Username
Academic license - for non-commercial use only - expires 2024-02-22
Warning: Gurobi version mismatch between Python 9.5.0 and C library 9.5.2
Set parameter TimeLimit to value 3600
Set parameter MIPGap to value 1e-06
Set parameter Threads to value 1
Gurobi Optimizer version 9.5.2 build v9.5.2rc0 (linux64)
Thread count: 4 physical cores, 4 logical processors, using up to 1 threads
Optimize a model with 260 rows, 312 columns and 674 nonzeros
Model fingerprint: 0x59e8c0ec
Variable types: 208 continuous, 104 integer (104 binary)
Coefficient statistics:
  Matrix range     [1e+00, 1e+02]
  Objective range  [8e-01, 2e+03]
  Bounds range     [1e+00, 1e+00]
  RHS range        [2e+01, 2e+02]
Found heuristic solution: objective 59082.000000
Presolve removed 7 rows and 7 columns
Presolve time: 0.00s
Presolved: 253 rows, 305 columns, 658 nonzeros
Variable types: 203 continuous, 102 integer (102 binary)

Root relaxation: objective 2.613215e+04, 217 iterations, 0.00 seconds (0.00 work units)

    Nodes    |    Current Node    |     Objective Bounds      |     Work
 Expl Unexpl |  Obj  Depth IntInf | Incumbent    BestBd   Gap | It/Node Time

     0     0 26132.1463    0   81 59082.0000 26132.1463  55.8%     -    0s
H    0     0                    48138.400000 26132.1463  45.7%     -    0s
H    0     0                    47893.400000 26132.1463  45.4%     -    0s
H    0     0                    47751.400000 26132.1463  45.3%     -    0s
     0     0 28179.8613    0   79 47751.4000 28179.8613  41.0%     -    0s
H    0     0                    44475.400000 28179.8613  36.6%     -    0s
     0     0 28201.9172    0   80 44475.4000 28201.9172  36.6%     -    0s
     0     0 29002.1544    0   71 44475.4000 29002.1544  34.8%     -    0s
H    0     0                    37117.800000 29002.1544  21.9%     -    0s
     0     0 29100.2098    0   63 37117.8000 29100.2098  21.6%     -    0s
     0     0 29114.4879    0   63 37117.8000 29114.4879  21.6%     -    0s
     0     0 29116.9160    0   63 37117.8000 29116.9160  21.6%     -    0s
     0     0 29221.5171    0   61 37117.8000 29221.5171  21.3%     -    0s
     0     0 29251.0220    0   62 37117.8000 29251.0220  21.2%     -    0s
     0     0 29254.4223    0   62 37117.8000 29254.4223  21.2%     -    0s
     0     0 29258.1544    0   62 37117.8000 29258.1544  21.2%     -    0s
     0     0 29258.2689    0   64 37117.8000 29258.2689  21.2%     -    0s
     0     0 29309.4307    0   68 37117.8000 29309.4307  21.0%     -    0s
H    0     0                    34758.400000 29309.4307  15.7%     -    0s
     0     0 29327.3107    0   67 34758.4000 29327.3107  15.6%     -    0s
     0     0 29327.6972    0   67 34758.4000 29327.6972  15.6%     -    0s
     0     0 29357.5794    0   70 34758.4000 29357.5794  15.5%     -    0s
     0     0 29367.2962    0   70 34758.4000 29367.2962  15.5%     -    0s
     0     0 29367.5638    0   71 34758.4000 29367.5638  15.5%     -    0s
     0     0 29377.1630    0   73 34758.4000 29377.1630  15.5%     -    0s
     0     0 29377.1630    0   71 34758.4000 29377.1630  15.5%     -    0s
     0     2 29378.0432    0   71 34758.4000 29378.0432  15.5%     -    0s
H   16    16                    34603.588499 29378.0432  15.1%   7.1    0s
H   23    23                    32794.658963 29378.0432  10.4%   6.0    0s
H   24    24                    32591.268999 29378.0432  9.86%   6.0    0s
H   25    25                    32560.268999 29378.0432  9.77%   6.0    0s
H   26    26                    32518.404249 29378.0432  9.66%   6.0    0s
H   27    27                    32490.449132 29378.0432  9.58%   5.8    0s
H   27    27                    32304.849132 29378.0432  9.06%   5.8    0s
H   27    25                    32140.507410 29378.0432  8.59%   5.8    0s
H   27    25                    32112.904670 29378.0432  8.52%   5.8    0s
H   27    24                    32056.000560 29378.0432  8.35%   5.8    0s
H   27    24                    32000.799839 29378.0432  8.20%   5.8    0s
H   27    24                    31942.799839 29378.0432  8.03%   5.8    0s
H   27    24                    31942.346558 29378.0432  8.03%   5.8    0s
H   27    24                    31935.872071 29378.0432  8.01%   5.8    0s
H   27    23                    31763.554930 29378.0432  7.51%   5.8    0s
H   27    23                    31706.542857 29378.0432  7.34%   5.8    0s
H   27    22                    31537.400000 29378.0432  6.85%   5.8    0s
*   47    38              44    31534.200000 29378.0432  6.84%   4.3    0s
H   54    30                    31241.800000 29387.9535  5.93%   5.4    0s
H   81    44                    31108.800000 29387.9535  5.53%   4.6    0s
H  101    62                    31081.574194 29387.9535  5.45%   4.2    0s
*  103    58              49    30988.800000 29387.9535  5.17%   4.2    0s
H  140    75                    30862.262921 29408.9416  4.71%   4.7    0s
H  142    74                    30831.262921 29408.9416  4.61%   4.6    0s
H  144    74                    30776.262921 29408.9416  4.44%   4.6    0s
*  145    72              34    30756.600000 29408.9416  4.38%   4.6    0s
*  146    71              34    30749.600000 29408.9416  4.36%   4.6    0s
H  189    68                    30208.000000 29409.7234  2.64%   5.0    0s
*  198    76              48    30182.000000 29409.7234  2.56%   4.8    0s
H  695   255                    30152.600000 29743.2103  1.36%  10.2    0s
H 1521   267                    30141.600000 29867.7530  0.91%  16.5    1s
H 1788   283                    30113.600000 29894.7597  0.73%  17.8    1s
* 2505   164              40    30112.600000 30004.9257  0.36%  18.9    2s

Cutting planes:
  Gomory: 13
  Cover: 2
  MIR: 110
  Flow cover: 108
  Flow path: 22
  Inf proof: 1
  Relax-and-lift: 2

Explored 2820 nodes (52436 simplex iterations) in 2.81 seconds (2.01 work units)
Thread count was 1 (of 4 available processors)

Solution count 10: 30112.6 30113.6 30141.6 ... 31081.6

Optimal solution found (tolerance 1.00e-06)
Best objective 3.011260000000e+04, best bound 3.011260000000e+04, gap 0.0000%
Obj: 30112.6
